c 0.0019550323486328125 (encode time in sec)
p cnf 125 124
1 2 0
-1 2 0
3 4 0
-3 4 0
5 1 6 0
5 -1 7 0
-5 1 7 0
-5 -1 6 0
8 3 9 0
8 -3 10 0
-8 3 10 0
-8 -3 9 0
11 1 3 5 8 12 0
11 1 3 5 -8 13 0
11 1 3 -5 8 16 0
11 1 3 -5 -8 14 0
11 1 -3 5 8 15 0
11 1 -3 5 -8 17 0
11 1 -3 -5 8 18 0
11 1 -3 -5 -8 19 0
11 -1 3 5 8 20 0
11 -1 3 5 -8 21 0
11 -1 3 -5 8 30 0
11 -1 3 -5 -8 29 0
11 -1 -3 5 8 22 0
11 -1 -3 5 -8 32 0
11 -1 -3 -5 8 28 0
11 -1 -3 -5 -8 27 0
-11 1 3 5 8 42 0
-11 1 3 5 -8 23 0
-11 1 3 -5 8 31 0
-11 1 3 -5 -8 24 0
-11 1 -3 5 8 33 0
-11 1 -3 5 -8 38 0
-11 1 -3 -5 8 40 0
-11 1 -3 -5 -8 41 0
-11 -1 3 5 8 34 0
-11 -1 3 5 -8 35 0
-11 -1 3 -5 8 36 0
-11 -1 3 -5 -8 39 0
-11 -1 -3 5 8 43 0
-11 -1 -3 5 -8 25 0
-11 -1 -3 -5 8 37 0
-11 -1 -3 -5 -8 26 0
44 3 11 8 45 0
44 3 11 -8 46 0
44 3 -11 8 49 0
44 3 -11 -8 48 0
44 -3 11 8 47 0
44 -3 11 -8 50 0
44 -3 -11 8 51 0
44 -3 -11 -8 52 0
-44 3 11 8 53 0
-44 3 11 -8 54 0
-44 3 -11 8 59 0
-44 3 -11 -8 55 0
-44 -3 11 8 57 0
-44 -3 11 -8 60 0
-44 -3 -11 8 56 0
-44 -3 -11 -8 58 0
61 3 5 11 44 8 62 0
61 3 5 11 44 -8 63 0
61 3 5 11 -44 8 65 0
61 3 5 11 -44 -8 66 0
61 3 5 -11 44 8 64 0
61 3 5 -11 44 -8 67 0
61 3 5 -11 -44 8 68 0
61 3 5 -11 -44 -8 69 0
61 3 -5 11 44 8 70 0
61 3 -5 11 44 -8 71 0
61 3 -5 11 -44 8 72 0
61 3 -5 11 -44 -8 123 0
61 3 -5 -11 44 8 108 0
61 3 -5 -11 44 -8 89 0
61 3 -5 -11 -44 8 104 0
61 3 -5 -11 -44 -8 124 0
61 -3 5 11 44 8 85 0
61 -3 5 11 44 -8 111 0
61 -3 5 11 -44 8 86 0
61 -3 5 11 -44 -8 119 0
61 -3 5 -11 44 8 115 0
61 -3 5 -11 44 -8 96 0
61 -3 5 -11 -44 8 79 0
61 -3 5 -11 -44 -8 87 0
61 -3 -5 11 44 8 120 0
61 -3 -5 11 44 -8 95 0
61 -3 -5 11 -44 8 73 0
61 -3 -5 11 -44 -8 97 0
61 -3 -5 -11 44 8 98 0
61 -3 -5 -11 44 -8 114 0
61 -3 -5 -11 -44 8 84 0
61 -3 -5 -11 -44 -8 107 0
-61 3 5 11 44 8 121 0
-61 3 5 11 44 -8 99 0
-61 3 5 11 -44 8 100 0
-61 3 5 11 -44 -8 101 0
-61 3 5 -11 44 8 102 0
-61 3 5 -11 44 -8 74 0
-61 3 5 -11 -44 8 88 0
-61 3 5 -11 -44 -8 92 0
-61 3 -5 11 44 8 103 0
-61 3 -5 11 44 -8 105 0
-61 3 -5 11 -44 8 125 0
-61 3 -5 11 -44 -8 77 0
-61 3 -5 -11 44 8 91 0
-61 3 -5 -11 44 -8 109 0
-61 3 -5 -11 -44 8 93 0
-61 3 -5 -11 -44 -8 78 0
-61 -3 5 11 44 8 112 0
-61 -3 5 11 44 -8 90 0
-61 -3 5 11 -44 8 110 0
-61 -3 5 11 -44 -8 80 0
-61 -3 5 -11 44 8 83 0
-61 -3 5 -11 44 -8 106 0
-61 -3 5 -11 -44 8 118 0
-61 -3 5 -11 -44 -8 113 0
-61 -3 -5 11 44 8 81 0
-61 -3 -5 11 44 -8 82 0
-61 -3 -5 11 -44 8 75 0
-61 -3 -5 11 -44 -8 116 0
-61 -3 -5 -11 44 8 76 0
-61 -3 -5 -11 44 -8 94 0
-61 -3 -5 -11 -44 8 117 0
-61 -3 -5 -11 -44 -8 122 0
